141 300 192 131 181 102 151 150 151 178 114 194 187 111 150 135 105 130 182 130 166 136 151 113 155 176 103 156 189 110 106 135 177 164 133 157 167 150 106 117 194 188 177 181 199 127 182 170 157 163 166 123 200 183 136 120 158 139 177 146 115 149 148 192 112 147 115 179 163 188 196 156 175 173 102 139 166 184 109 122 113 175 145 179 124 147 199 182 152 141 195 167 190 108 159 102 155 174 147 184 127 109 139 102 148 142 141 113 192 116 135 104 158 147 149 182 194 148 129 112 189 190 179 145 198 103 113 118 143 160 101 171 135 141 173 183 149 180 162 106 163 164 178 